Solving original (integer) problem with strategy gdp.hull_exact...
--- Job model.gms Start 02/15/26 06:27:52 52.2.0 d8e408be LEX-LEG x86 64bit/Linux
--- Applying:
    /package/gams/52.2/gmsprmun.txt
--- GAMS Parameters defined
    Input /local/scratch/a/sgusev/repos/k_means/data/gams_gurobi_gdp.hull_exact/no_mode/2026-02-15_06-27-52/original/model.gms
    Output /local/scratch/a/sgusev/repos/k_means/data/gams_gurobi_gdp.hull_exact/no_mode/2026-02-15_06-27-52/original/output.lst
    ScrDir /local/scratch/a/sgusev/repos/k_means/data/gams_gurobi_gdp.hull_exact/no_mode/2026-02-15_06-27-52/original/225a/
    SysDir /package/gams/52.2/
    CurDir /local/scratch/a/sgusev/repos/k_means/data/gams_gurobi_gdp.hull_exact/no_mode/2026-02-15_06-27-52/original/
    LogOption 3
    AppendLog 1
Licensee: David Bernal / SECQUOIA Research Group         G251008+0003Ac-GEN
          Purdue University, Davidson School of Chemical EngineeringDCE4838
          225a/gamslice.dat
          5a82958a-fbca-4a23
          node:66820903 mem:995 cores:48 ipport:38567 v:2                  
          Evaluation license: Not for commercial or production use
          The time-limited license stops working on : Jun 30, 2027
System information: 48 physical cores and 995 Gb physical memory detected
GAMS 52.2.0   Copyright (C) 1987-2025 GAMS Development. All rights reserved
--- Starting compilation
--- model.gms(4619) 2 Mb
--- $echo File /local/scratch/a/sgusev/repos/k_means/data/gams_gurobi_gdp.hull_exact/no_mode/2026-02-15_06-27-52/original/gurobi.opt
--- model.gms(6744) 2 Mb
--- Starting execution: elapsed 0:00:00.023
--- model.gms(4628) 3 Mb
--- Generating MINLP model GAMS_MODEL
--- model.gms(4632) 6 Mb
---   1,414 rows  645 columns  3,405 non-zeroes
---   2,142 nl-code  357 nl-non-zeroes
---   51 discrete-columns
--- Range statistics (absolute non-zero finite values)
--- RHS       [min, max] : [ 1.000E+00, 1.000E+00] - Zero values observed as well
--- Bound     [min, max] : [ 1.000E+00, 1.700E+02] - Zero values observed as well
--- Matrix    [min, max] : [ 1.000E+00, 1.700E+02] - Zero values observed as well
--- model.gms(4632) 4 Mb
--- Executing GUROBI (Solvelink=5): elapsed 0:00:00.031
Reading parameter(s) from "/local/scratch/a/sgusev/repos/k_means/data/gams_gurobi_gdp.hull_exact/no_mode/2026-02-15_06-27-52/original/gurobi.opt"
>>  NonConvex 2
>>  Threads 1
>>  MIPGap 1e-06
>>  MIPGapAbs 1e-10
>>  FeasibilityTol 1e-06
>>  OptimalityTol 1e-06
>>  IntFeasTol 1e-05
Finished reading from "/local/scratch/a/sgusev/repos/k_means/data/gams_gurobi_gdp.hull_exact/no_mode/2026-02-15_06-27-52/original/gurobi.opt"

... GRB_LICENSE_FILE = /local/scratch/a/sgusev/gurobi.lic

    Gurobi           52.2.0 d8e408be Dec 8, 2025           LEG x86 64bit/Linux    

... GAMS/Gurobi Link license.
... GMO Q Extraction (ThreePass): 0.00s

    Gurobi Optimizer version 13.0.0 build v13.0.0rc1 (linux64 - "Oracle Linux Server 9.7")
    
    CPU model: AMD EPYC 7643 48-Core Processor, instruction set [SSE2|AVX|AVX2]
    Thread count: 48 physical cores, 96 logical processors, using up to 1 threads
    
    Non-default parameters:
    TimeLimit  300
    MIPGap  1e-06
    LogToConsole  0
    NonConvex  2
    Threads  1
    
    Optimize a model with 1362 rows, 644 columns and 3030 nonzeros (Min)
    Model fingerprint: 0x34c50816
    Model has 17 linear objective coefficients
    Model has 51 quadratic constraints
    Variable types: 593 continuous, 51 integer (0 binary)
    Coefficient statistics:
      Matrix range     [1e+00, 2e+02]
      QMatrix range    [6e-03, 4e+00]
      Objective range  [1e+00, 1e+00]
      Bounds range     [1e+00, 2e+02]
      RHS range        [1e+00, 1e+00]
    Presolve removed 255 rows and 272 columns
    Presolve time: 0.01s
    Presolved: 1641 rows, 933 columns, 4465 nonzeros
    Presolved model has 255 quadratic constraint(s)
    Variable types: 882 continuous, 51 integer (51 binary)
    
    Root relaxation: objective 0.000000e+00, 466 iterations, 0.01 seconds (0.01 work units)
    
        Nodes    |    Current Node    |     Objective Bounds      |     Work
     Expl Unexpl |  Obj  Depth IntInf | Incumbent    BestBd   Gap | It/Node Time
    
         0     0    0.00000    0   10          -    0.00000      -     -    0s
    H    0     0                      45.8909548    0.00000   100%     -    0s
         0     0    0.00000    0   28   45.89095    0.00000   100%     -    0s
    H    0     0                      24.0925207    0.00000   100%     -    0s
         0     0    0.00000    0   30   24.09252    0.00000   100%     -    0s
         0     0    0.00000    0   33   24.09252    0.00000   100%     -    0s
         0     0    0.00000    0   26   24.09252    0.00000   100%     -    0s
         0     0    0.00000    0   31   24.09252    0.00000   100%     -    0s
         0     0    0.00000    0   29   24.09252    0.00000   100%     -    0s
         0     0    0.00000    0   31   24.09252    0.00000   100%     -    0s
         0     0    0.00000    0   30   24.09252    0.00000   100%     -    0s
         0     0    0.00000    0   30   24.09252    0.00000   100%     -    0s
         0     0    0.00000    0   30   24.09252    0.00000   100%     -    0s
         0     0    0.00000    0   30   24.09252    0.00000   100%     -    0s
         0     0    0.00000    0   28   24.09252    0.00000   100%     -    0s
         0     0    0.00000    0   30   24.09252    0.00000   100%     -    0s
         0     0    0.00000    0   30   24.09252    0.00000   100%     -    0s
         0     0    0.00000    0   30   24.09252    0.00000   100%     -    0s
         0     0    0.00000    0   20   24.09252    0.00000   100%     -    0s
         0     0    0.00000    0   32   24.09252    0.00000   100%     -    0s
         0     0    0.00000    0   30   24.09252    0.00000   100%     -    0s
         0     0    0.00000    0   30   24.09252    0.00000   100%     -    0s
         0     0    0.00000    0   30   24.09252    0.00000   100%     -    0s
         0     0    0.00000    0   32   24.09252    0.00000   100%     -    0s
         0     0    0.00000    0   32   24.09252    0.00000   100%     -    0s
         0     0    0.00000    0   32   24.09252    0.00000   100%     -    0s
         0     0    0.00000    0   30   24.09252    0.00000   100%     -    0s
         0     0    0.00000    0   34   24.09252    0.00000   100%     -    0s
         0     0    0.00000    0   30   24.09252    0.00000   100%     -    0s
         0     0    0.00000    0   30   24.09252    0.00000   100%     -    0s
         0     0    0.00000    0   18   24.09252    0.00000   100%     -    0s
         0     0    0.00000    0   33   24.09252    0.00000   100%     -    0s
         0     0    0.00000    0   32   24.09252    0.00000   100%     -    0s
         0     0    0.00000    0   30   24.09252    0.00000   100%     -    0s
         0     0    0.00000    0   22   24.09252    0.00000   100%     -    0s
         0     0    0.00000    0   28   24.09252    0.00000   100%     -    0s
         0     0    0.00000    0   25   24.09252    0.00000   100%     -    0s
         0     0    0.00000    0   28   24.09252    0.00000   100%     -    0s
         0     0    0.00000    0   28   24.09252    0.00000   100%     -    0s
         0     0    0.00000    0   32   24.09252    0.00000   100%     -    0s
         0     0    0.00000    0   22   24.09252    0.00000   100%     -    1s
         0     0    0.00000    0   29   24.09252    0.00000   100%     -    1s
         0     0    0.00000    0   28   24.09252    0.00000   100%     -    1s
         0     0    0.00000    0   30   24.09252    0.00000   100%     -    1s
         0     0    0.00000    0   28   24.09252    0.00000   100%     -    1s
         0     0    0.00000    0   28   24.09252    0.00000   100%     -    1s
         0     0    0.00000    0   24   24.09252    0.00000   100%     -    1s
         0     0    0.00000    0   33   24.09252    0.00000   100%     -    1s
         0     0    0.00000    0   24   24.09252    0.00000   100%     -    1s
         0     0    0.00000    0   25   24.09252    0.00000   100%     -    1s
         0     0    0.00000    0   25   24.09252    0.00000   100%     -    1s
         0     0    0.00000    0   26   24.09252    0.00000   100%     -    1s
         0     0    0.00000    0   26   24.09252    0.00000   100%     -    1s
         0     0    0.00000    0   30   24.09252    0.00000   100%     -    1s
         0     0    0.00000    0   30   24.09252    0.00000   100%     -    1s
         0     0    0.00000    0   32   24.09252    0.00000   100%     -    1s
         0     0    0.00000    0   32   24.09252    0.00000   100%     -    1s
         0     0    0.00000    0   34   24.09252    0.00000   100%     -    1s
         0     0    0.00000    0   30   24.09252    0.00000   100%     -    1s
         0     0    0.00000    0   32   24.09252    0.00000   100%     -    1s
         0     0    0.00000    0   30   24.09252    0.00000   100%     -    1s
         0     0    0.00000    0   30   24.09252    0.00000   100%     -    1s
         0     0    0.00000    0   24   24.09252    0.00000   100%     -    1s
         0     0    0.00000    0   28   24.09252    0.00000   100%     -    1s
         0     0    0.00000    0   28   24.09252    0.00000   100%     -    1s
         0     0    0.00000    0   32   24.09252    0.00000   100%     -    1s
         0     0    0.00000    0   28   24.09252    0.00000   100%     -    1s
         0     0    0.00000    0   30   24.09252    0.00000   100%     -    1s
         0     0    0.00000    0   24   24.09252    0.00000   100%     -    1s
         0     0    0.00000    0   30   24.09252    0.00000   100%     -    1s
         0     0    0.00000    0   30   24.09252    0.00000   100%     -    1s
         0     0    0.00000    0   30   24.09252    0.00000   100%     -    1s
         0     0    0.00000    0   30   24.09252    0.00000   100%     -    1s
         0     0    0.00000    0   33   24.09252    0.00000   100%     -    1s
         0     0    0.00000    0   24   24.09252    0.00000   100%     -    1s
         0     0    0.00000    0   28   24.09252    0.00000   100%     -    1s
         0     0    0.00000    0   28   24.09252    0.00000   100%     -    2s
         0     0    0.00000    0   30   24.09252    0.00000   100%     -    2s
         0     0    0.00000    0   28   24.09252    0.00000   100%     -    2s
         0     0    0.00000    0   32   24.09252    0.00000   100%     -    2s
         0     0    0.00000    0   25   24.09252    0.00000   100%     -    2s
         0     0    0.00000    0   31   24.09252    0.00000   100%     -    2s
         0     0    0.00000    0   25   24.09252    0.00000   100%     -    2s
         0     0    0.00000    0   28   24.09252    0.00000   100%     -    2s
         0     0    0.00000    0   20   24.09252    0.00000   100%     -    2s
         0     0    0.00000    0   28   24.09252    0.00000   100%     -    2s
         0     0    0.00000    0   26   24.09252    0.00000   100%     -    2s
         0     0    0.00000    0   32   24.09252    0.00000   100%     -    2s
         0     0    0.00000    0   30   24.09252    0.00000   100%     -    2s
         0     0    0.00000    0   26   24.09252    0.00000   100%     -    2s
         0     0    0.00000    0   26   24.09252    0.00000   100%     -    2s
         0     0    0.00000    0   29   24.09252    0.00000   100%     -    2s
         0     0    0.00000    0   29   24.09252    0.00000   100%     -    2s
         0     0    0.00000    0   32   24.09252    0.00000   100%     -    2s
         0     0    0.00000    0   28   24.09252    0.00000   100%     -    2s
         0     0    0.00000    0   30   24.09252    0.00000   100%     -    2s
         0     0    0.00000    0   30   24.09252    0.00000   100%     -    2s
         0     0    0.00000    0   30   24.09252    0.00000   100%     -    2s
         0     0    0.00000    0   30   24.09252    0.00000   100%     -    2s
         0     0    0.00000    0   32   24.09252    0.00000   100%     -    2s
         0     0    0.00000    0   30   24.09252    0.00000   100%     -    2s
         0     0    0.00000    0   30   24.09252    0.00000   100%     -    2s
         0     0    0.00000    0   27   24.09252    0.00000   100%     -    2s
         0     0    0.00000    0   32   24.09252    0.00000   100%     -    2s
         0     0    0.00000    0   30   24.09252    0.00000   100%     -    2s
         0     0    0.00000    0   26   24.09252    0.00000   100%     -    2s
         0     0    0.00000    0   26   24.09252    0.00000   100%     -    2s
         0     0    0.00000    0   30   24.09252    0.00000   100%     -    2s
         0     0    0.00000    0   29   24.09252    0.00000   100%     -    2s
         0     0    0.00000    0   31   24.09252    0.00000   100%     -    2s
         0     0    0.00000    0   31   24.09252    0.00000   100%     -    2s
         0     0    0.00000    0   31   24.09252    0.00000   100%     -    2s
         0     0    0.00000    0   28   24.09252    0.00000   100%     -    2s
         0     0    0.00000    0   26   24.09252    0.00000   100%     -    2s
         0     0    0.00000    0   26   24.09252    0.00000   100%     -    3s
         0     0    0.00000    0   30   24.09252    0.00000   100%     -    3s
         0     0    0.00000    0   26   24.09252    0.00000   100%     -    3s
         0     0    0.00000    0   27   24.09252    0.00000   100%     -    3s
         0     0    0.00000    0   27   24.09252    0.00000   100%     -    3s
         0     0    0.00000    0   27   24.09252    0.00000   100%     -    3s
         0     0    0.00000    0   27   24.09252    0.00000   100%     -    3s
         0     0    0.00000    0   28   24.09252    0.00000   100%     -    3s
         0     0    0.00000    0   26   24.09252    0.00000   100%     -    3s
         0     0    0.00000    0   28   24.09252    0.00000   100%     -    3s
         0     0    0.00000    0   24   24.09252    0.00000   100%     -    3s
         0     0    0.00000    0   28   24.09252    0.00000   100%     -    3s
         0     0    0.00000    0   28   24.09252    0.00000   100%     -    3s
         0     0    0.00000    0   32   24.09252    0.00000   100%     -    3s
         0     0    0.00000    0   30   24.09252    0.00000   100%     -    3s
         0     0    0.00000    0   30   24.09252    0.00000   100%     -    3s
         0     0    0.00000    0   30   24.09252    0.00000   100%     -    3s
         0     0    0.00000    0   30   24.09252    0.00000   100%     -    3s
         0     0    0.00000    0   30   24.09252    0.00000   100%     -    3s
         0     0    0.00000    0   30   24.09252    0.00000   100%     -    3s
         0     0    0.00000    0   30   24.09252    0.00000   100%     -    3s
         0     0    0.00000    0   30   24.09252    0.00000   100%     -    3s
         0     0    0.00000    0   27   24.09252    0.00000   100%     -    3s
         0     0    0.00000    0   32   24.09252    0.00000   100%     -    3s
         0     0    0.00000    0   31   24.09252    0.00000   100%     -    3s
         0     0    0.00000    0   28   24.09252    0.00000   100%     -    3s
         0     0    0.00000    0   28   24.09252    0.00000   100%     -    3s
         0     0    0.00000    0   30   24.09252    0.00000   100%     -    3s
         0     0    0.00000    0   30   24.09252    0.00000   100%     -    3s
         0     0    0.00000    0   30   24.09252    0.00000   100%     -    3s
         0     0    0.00000    0   28   24.09252    0.00000   100%     -    3s
         0     0    0.00000    0   32   24.09252    0.00000   100%     -    3s
         0     0    0.00000    0   24   24.09252    0.00000   100%     -    3s
         0     0    0.00000    0   28   24.09252    0.00000   100%     -    3s
         0     0    0.00000    0   28   24.09252    0.00000   100%     -    3s
         0     0    0.00000    0   28   24.09252    0.00000   100%     -    3s
         0     0    0.00000    0   27   24.09252    0.00000   100%     -    3s
         0     0    0.00000    0   31   24.09252    0.00000   100%     -    3s
         0     0    0.00000    0   28   24.09252    0.00000   100%     -    4s
         0     0    0.00000    0   33   24.09252    0.00000   100%     -    4s
         0     0    0.00000    0   26   24.09252    0.00000   100%     -    4s
         0     0    0.00000    0   28   24.09252    0.00000   100%     -    4s
         0     0    0.00000    0   28   24.09252    0.00000   100%     -    4s
         0     0    0.00000    0   28   24.09252    0.00000   100%     -    4s
         0     0    0.00000    0   28   24.09252    0.00000   100%     -    4s
         0     0    0.00000    0   31   24.09252    0.00000   100%     -    4s
         0     0    0.00000    0   30   24.09252    0.00000   100%     -    4s
         0     0    0.00000    0   28   24.09252    0.00000   100%     -    4s
         0     0    0.00000    0   26   24.09252    0.00000   100%     -    4s
         0     0    0.00000    0   34   24.09252    0.00000   100%     -    4s
         0     0    0.00000    0   32   24.09252    0.00000   100%     -    4s
         0     0    0.00000    0   30   24.09252    0.00000   100%     -    4s
         0     0    0.00000    0   30   24.09252    0.00000   100%     -    4s
         0     0    0.00000    0   30   24.09252    0.00000   100%     -    4s
         0     0    0.00000    0   30   24.09252    0.00000   100%     -    4s
         0     0    0.00000    0   32   24.09252    0.00000   100%     -    4s
         0     0    0.00000    0   21   24.09252    0.00000   100%     -    4s
         0     0    0.00000    0   28   24.09252    0.00000   100%     -    4s
         0     0    0.00000    0   28   24.09252    0.00000   100%     -    4s
         0     0    0.00000    0   28   24.09252    0.00000   100%     -    4s
         0     0    0.00000    0   28   24.09252    0.00000   100%     -    4s
         0     0    0.00000    0   30   24.09252    0.00000   100%     -    4s
         0     0    0.00000    0   28   24.09252    0.00000   100%     -    4s
         0     0    0.00000    0   32   24.09252    0.00000   100%     -    4s
         0     0    0.00000    0   32   24.09252    0.00000   100%     -    4s
         0     0    0.00000    0   32   24.09252    0.00000   100%     -    4s
         0     0    0.00000    0   30   24.09252    0.00000   100%     -    4s
         0     0    0.00000    0   32   24.09252    0.00000   100%     -    4s
         0     0    0.00000    0   32   24.09252    0.00000   100%     -    4s
         0     0    0.00000    0   32   24.09252    0.00000   100%     -    4s
         0     0    0.00000    0   21   24.09252    0.00000   100%     -    4s
         0     0    0.00000    0   27   24.09252    0.00000   100%     -    4s
         0     0    0.00000    0   27   24.09252    0.00000   100%     -    4s
         0     0    0.00000    0   33   24.09252    0.00000   100%     -    4s
         0     0    0.00000    0   28   24.09252    0.00000   100%     -    4s
         0     0    0.00000    0   28   24.09252    0.00000   100%     -    4s
         0     0    0.00000    0   28   24.09252    0.00000   100%     -    4s
         0     0    0.00000    0   30   24.09252    0.00000   100%     -    4s
         0     0    0.00000    0   30   24.09252    0.00000   100%     -    5s
         0     0    0.00000    0   30   24.09252    0.00000   100%     -    5s
         0     0    0.00000    0   30   24.09252    0.00000   100%     -    5s
         0     0    0.00000    0   30   24.09252    0.00000   100%     -    5s
         0     0    0.00000    0   26   24.09252    0.00000   100%     -    5s
         0     0    0.00000    0   29   24.09252    0.00000   100%     -    5s
         0     0    0.00000    0   29   24.09252    0.00000   100%     -    5s
         0     0    0.00000    0   30   24.09252    0.00000   100%     -    5s
         0     0    0.00000    0   30   24.09252    0.00000   100%     -    5s
         0     0    0.00000    0   32   24.09252    0.00000   100%     -    5s
         0     0    0.00000    0   32   24.09252    0.00000   100%     -    5s
    H    0     0                      21.9863582    0.00000   100%     -    5s
         0     2    0.00000    0   28   21.98636    0.00000   100%     -    5s
    H    2     2                      21.2547463    0.00000   100%   356    5s
    H   97    87                      20.9519565    0.00000   100%   212    6s
    H  128   106                      20.7336693    0.00000   100%   200    6s
    H  134   112                      20.7330199    0.00000   100%   197    6s
    H  150   128                      20.5585689    0.00000   100%   187    6s
    H  188   151                      20.3169466    0.00000   100%   191    7s
    H  222   177                      20.2436887    0.00000   100%   178    7s
    H  251   204                      20.2436881    0.00000   100%   181    7s
    H  291   229                      20.1319503    0.00000   100%   183    8s
    H  291   229                      20.0092183    0.00000   100%   183    8s
       306   239    6.09375   17   36   20.00922    0.00000   100%   174   10s
       341   263   15.34610   23   40   20.00922    0.00000   100%   156   15s
       368   283    0.07750   16   47   20.00922    0.00000   100%   387   20s
    H  379   272                      19.6579722    0.00000   100%   392   20s
    H  382   260                      18.6026479    0.00000   100%   393   21s
    H  390   251                      18.3131939    0.00000   100%   391   21s
    H  391   239                      18.1687441    0.00000   100%   390   21s
    H  408   238                      17.7355652    0.00000   100%   380   21s
    H  423   229                      17.7355641    0.00000   100%   382   22s
    H  472   237                      16.6320198    0.05026   100%   365   23s
    H  530   254                      16.6320197    0.10984  99.3%   349   24s
       562   267    5.97002   25   36   16.63202    1.83540  89.0%   342   25s
    H  574   263                      16.6320196    1.83540  89.0%   340   25s
    H  575   254                      16.6320188    1.83540  89.0%   340   25s
      1116   545    8.52274   21   35   16.63202    3.02257  81.8%   259   30s
      1896   968   15.39112   33   20   16.63202    4.10345  75.3%   214   35s
      2819  1425   14.92042   32   20   16.63202    4.87790  70.7%   186   40s
      3800  1887    6.41641   23   36   16.63202    5.59336  66.4%   171   45s
      4766  2327    8.44760   24   33   16.63202    6.20554  62.7%   162   50s
      5892  2795   10.54804   24   31   16.63202    6.54566  60.6%   155   55s
      7130  3311   16.33171   36   12   16.63202    6.87872  58.6%   149   60s
      8385  3826   10.38744   28   30   16.63202    7.16054  56.9%   145   65s
      9635  4330   16.26665   31   20   16.63202    7.40545  55.5%   142   70s
     10903  4816    8.79563   26   33   16.63202    7.63424  54.1%   139   75s
     12206  5336   10.48982   27   30   16.63202    7.86031  52.7%   136   80s
     13481  5797    9.06607   25   31   16.63202    8.06772  51.5%   134   85s
     14656  6204   15.96837   32   20   16.63202    8.22622  50.5%   132   90s
     16065  6709   11.58999   28   26   16.63202    8.41593  49.4%   129   95s
     17436  7167   14.39642   30   24   16.63202    8.56542  48.5%   128  100s
     18852  7616   13.19087   30   24   16.63202    8.71938  47.6%   126  105s
     20316  8116   10.12155   27   29   16.63202    8.84965  46.8%   124  110s
     21802  8555   12.51153   29   29   16.63202    8.97927  46.0%   123  115s
     23279  9024   15.05718   34   20   16.63202    9.08990  45.3%   122  120s
     24762  9495   14.14847   30   23   16.63202    9.17981  44.8%   121  125s
     26277  9958   12.78205   30   25   16.63202    9.27404  44.2%   119  130s
     27765 10393   16.38828   33   18   16.63202    9.35539  43.8%   119  135s
     29204 10828   14.95482   31   18   16.63202    9.45623  43.1%   118  140s
     29783 10983   15.01692   35   17   16.63202    9.50334  42.9%   118  145s
     31223 11368   14.65501   27   25   16.63202    9.58083  42.4%   117  150s
     32709 11736   10.87968   25   25   16.63202    9.65010  42.0%   117  155s
     34124 12136   15.98926   32   19   16.63202    9.72434  41.5%   116  160s
     35603 12550   13.88836   30   24   16.63202    9.80408  41.1%   116  165s
     37083 12958   11.95148   29   27   16.63202    9.88648  40.6%   115  170s
     38529 13346   15.48321   31   23   16.63202    9.94925  40.2%   115  175s
     40037 13693   14.90965   27   22   16.63202   10.02240  39.7%   114  180s
     41620 14089   16.35756   30   21   16.63202   10.09650  39.3%   114  185s
     43159 14468   15.06503   33   18   16.63202   10.15781  38.9%   113  190s
     44714 14828   11.81752   27   27   16.63202   10.23428  38.5%   112  195s
     46264 15175   15.82100   34   18   16.63202   10.30051  38.1%   112  200s
     47859 15496   14.54399   28   24   16.63202   10.36182  37.7%   111  205s
     49504 15843     cutoff   34        16.63202   10.42372  37.3%   111  210s
     51081 16211   12.52888   28   21   16.63202   10.47766  37.0%   110  215s
     52688 16544   16.59902   35   15   16.63202   10.54360  36.6%   110  220s
     54321 16866   15.05750   31   23   16.63202   10.60062  36.3%   109  225s
     55918 17196   14.41820   32   17   16.63202   10.65133  36.0%   109  230s
     57558 17504   11.48839   28   26   16.63202   10.71189  35.6%   108  235s
     59207 17835   13.12042   30   23   16.63202   10.76835  35.3%   108  240s
     60791 18139   15.77775   31   23   16.63202   10.82217  34.9%   108  245s
     62393 18479   12.01650   28   28   16.63202   10.86625  34.7%   107  250s
     64064 18759   12.07406   30   24   16.63202   10.92133  34.3%   107  255s
     65717 19049   12.98845   30   23   16.63202   10.98004  34.0%   106  260s
     67383 19339   11.91722   29   26   16.63202   11.02429  33.7%   106  265s
     69004 19614   12.14227   29   26   16.63202   11.06479  33.5%   106  270s
     70670 19930     cutoff   33        16.63202   11.10968  33.2%   105  275s
     72338 20209   14.50130   34   18   16.63202   11.15857  32.9%   105  280s
     74031 20465     cutoff   30        16.63202   11.20137  32.7%   105  285s
     75738 20744   14.30825   29   21   16.63202   11.24202  32.4%   104  290s
     76408 20869   13.95653   29   22   16.63202   11.25715  32.3%   104  296s
    
    Cutting planes:
      Gomory: 2
      MIR: 2
      Flow cover: 15
    
    Explored 77708 nodes (8206891 simplex iterations) in 300.00 seconds (347.24 work units)
    Thread count was 1 (of 96 available processors)
    
    Solution count 10: 16.632 17.7356 18.1687 ... 20.3169
    
    Time limit reached
    Best objective 1.663201876644e+01, best bound 1.128822800480e+01, gap 32.1295%
    
    User-callback calls 77831, time in user-callback 0.00 sec

--- Reading solution for model GAMS_MODEL
***
*** Solver did not provide marginals for model GAMS_MODEL
***
--- Executing after solve: elapsed 0:05:00.101
--- model.gms(4635) 4 Mb
--- model.gms(6744) 6 Mb
--- Putfile results /local/scratch/a/sgusev/repos/k_means/data/gams_gurobi_gdp.hull_exact/no_mode/2026-02-15_06-27-52/original/results.dat
--- Putfile statresults /local/scratch/a/sgusev/repos/k_means/data/gams_gurobi_gdp.hull_exact/no_mode/2026-02-15_06-27-52/original/resultsstat.dat
*** Status: Normal completion
--- Job model.gms Stop 02/15/26 06:32:52 elapsed 0:05:00.104
Original problem solved. Time taken: 300.74617195129395 seconds
Original objective value: 16.632018766435735
